NAME: test1894
TYPE: TSP
DIMENSION: 11
EDGE_WEIGHT_TYPE: EUC_2D
NODE_COORD_SECTION
1 50.61878180453287 87.48493206605032
2 68.07303859487848 71.04949565817229
3 6.318945618336946 43.419524191100244
4 58.70160744164007 97.49548306669729
5 10.495065889109734 49.95575704620012
6 78.25323907782106 91.69327671022268
7 1.5049332279413852 52.86600208637221
8 97.9372243705874 89.9209398643383
9 68.63877457862098 86.84460590154235
10 66.61866958322848 37.668470163020686
11 93.74714931597886 40.41244472086215
EOF
